(set-logic QF_UF)
(declare-fun A0 () Bool)
(declare-fun A1 () Bool)
(declare-fun A2 () Bool)
(declare-fun A3 () Bool)
(declare-fun A4 () Bool)
(declare-fun A5 () Bool)
(declare-fun A6 () Bool)
(declare-fun A7 () Bool)
(declare-fun A8 () Bool)
(declare-fun A9 () Bool)
(declare-fun A10 () Bool)
(declare-fun A11 () Bool)
(declare-fun A12 () Bool)
(declare-fun A13 () Bool)
(declare-fun A14 () Bool)
(declare-fun A15 () Bool)
(declare-fun A16 () Bool)
(declare-fun A17 () Bool)
(declare-fun A18 () Bool)
(declare-fun A19 () Bool)
(declare-fun A20 () Bool)
(declare-fun A21 () Bool)
(declare-fun A22 () Bool)
(declare-fun A23 () Bool)
(declare-fun A24 () Bool)
(assert (let ((.def_0 (not A4))) (let ((.def_1 (and .def_0 A18))) (let ((.def_2 (not A12))) (let ((.def_3 (or .def_2 A4))) (let ((.def_4 (not .def_3))) (let ((.def_5 (and .def_4 .def_1))) (let ((.def_6 (not .def_5))) (let ((.def_7 (not A10))) (let ((.def_8 (not A23))) (let ((.def_9 (and .def_8 .def_7))) (let ((.def_10 (and A4 A4))) (let ((.def_11 (and .def_10 .def_9))) (let ((.def_12 (not .def_11))) (let ((.def_13 (= .def_12 .def_6))) (let ((.def_14 (or A22 A4))) (let ((.def_15 (not A2))) (let ((.def_16 (or A13 .def_15))) (let ((.def_17 (not .def_16))) (let ((.def_18 (or .def_17 .def_14))) (let ((.def_19 (not A1))) (let ((.def_20 (or A16 .def_19))) (let ((.def_21 (not .def_20))) (let ((.def_22 (not A18))) (let ((.def_23 (or .def_22 .def_8))) (let ((.def_24 (or .def_23 .def_21))) (let ((.def_25 (not .def_24))) (let ((.def_26 (or .def_25 .def_18))) (let ((.def_27 (not .def_26))) (let ((.def_28 (= .def_27 .def_13))) (let ((.def_29 (not A3))) (let ((.def_30 (not A6))) (let ((.def_31 (or .def_30 .def_29))) (let ((.def_32 (not .def_31))) (let ((.def_33 (and A15 A10))) (let ((.def_34 (not .def_33))) (let ((.def_35 (or .def_34 .def_32))) (let ((.def_36 (not .def_35))) (let ((.def_37 (and .def_19 A9))) (let ((.def_38 (or A3 A6))) (let ((.def_39 (or .def_38 .def_37))) (let ((.def_40 (= .def_39 .def_36))) (let ((.def_41 (not A5))) (let ((.def_42 (= A1 .def_41))) (let ((.def_43 (not .def_42))) (let ((.def_44 (not A21))) (let ((.def_45 (or .def_44 .def_15))) (let ((.def_46 (not .def_45))) (let ((.def_47 (= .def_46 .def_43))) (let ((.def_48 (and .def_7 A11))) (let ((.def_49 (not .def_48))) (let ((.def_50 (not A8))) (let ((.def_51 (not A7))) (let ((.def_52 (or .def_51 .def_50))) (let ((.def_53 (or .def_52 .def_49))) (let ((.def_54 (not .def_53))) (let ((.def_55 (or .def_54 .def_47))) (let ((.def_56 (not .def_55))) (let ((.def_57 (or .def_56 .def_40))) (let ((.def_58 (not .def_57))) (let ((.def_59 (or .def_58 .def_28))) (let ((.def_60 (not .def_59))) (let ((.def_61 (or .def_22 A10))) (let ((.def_62 (or A2 A2))) (let ((.def_63 (not .def_62))) (let ((.def_64 (= .def_63 .def_61))) (let ((.def_65 (not .def_64))) (let ((.def_66 (not A9))) (let ((.def_67 (or .def_66 A23))) (let ((.def_68 (not A0))) (let ((.def_69 (or A11 .def_68))) (let ((.def_70 (not .def_69))) (let ((.def_71 (and .def_70 .def_67))) (let ((.def_72 (and .def_71 .def_65))) (let ((.def_73 (not .def_72))) (let ((.def_74 (not A13))) (let ((.def_75 (and .def_74 .def_19))) (let ((.def_76 (or A7 .def_66))) (let ((.def_77 (not .def_76))) (let ((.def_78 (or .def_77 .def_75))) (let ((.def_79 (not .def_78))) (let ((.def_80 (not A14))) (let ((.def_81 (and .def_19 .def_80))) (let ((.def_82 (and A7 A10))) (let ((.def_83 (not .def_82))) (let ((.def_84 (= .def_83 .def_81))) (let ((.def_85 (not .def_84))) (let ((.def_86 (or .def_85 .def_79))) (let ((.def_87 (or .def_86 .def_73))) (let ((.def_88 (and .def_2 A20))) (let ((.def_89 (not .def_88))) (let ((.def_90 (or A3 A0))) (let ((.def_91 (or .def_90 .def_89))) (let ((.def_92 (not .def_91))) (let ((.def_93 (or A2 A18))) (let ((.def_94 (not A17))) (let ((.def_95 (and .def_22 .def_94))) (let ((.def_96 (= .def_95 .def_93))) (let ((.def_97 (and .def_96 .def_92))) (let ((.def_98 (not .def_97))) (let ((.def_99 (or A16 A16))) (let ((.def_100 (and A0 .def_2))) (let ((.def_101 (not .def_100))) (let ((.def_102 (and .def_101 .def_99))) (let ((.def_103 (not .def_102))) (let ((.def_104 (and .def_8 A16))) (let ((.def_105 (or A4 .def_44))) (let ((.def_106 (and .def_105 .def_104))) (let ((.def_107 (not .def_106))) (let ((.def_108 (= .def_107 .def_103))) (let ((.def_109 (not .def_108))) (let ((.def_110 (or .def_109 .def_98))) (let ((.def_111 (not .def_110))) (let ((.def_112 (and .def_111 .def_87))) (let ((.def_113 (or .def_112 .def_60))) (let ((.def_114 (or A3 A7))) (let ((.def_115 (= A4 .def_50))) (let ((.def_116 (not .def_115))) (let ((.def_117 (= .def_116 .def_114))) (let ((.def_118 (not .def_117))) (let ((.def_119 (not A20))) (let ((.def_120 (or .def_119 A17))) (let ((.def_121 (or A21 A20))) (let ((.def_122 (not .def_121))) (let ((.def_123 (or .def_122 .def_120))) (let ((.def_124 (not .def_123))) (let ((.def_125 (= .def_124 .def_118))) (let ((.def_126 (not .def_125))) (let ((.def_127 (or .def_68 A7))) (let ((.def_128 (and .def_94 .def_51))) (let ((.def_129 (not .def_128))) (let ((.def_130 (or .def_129 .def_127))) (let ((.def_131 (not .def_130))) (let ((.def_132 (or A16 A21))) (let ((.def_133 (not .def_132))) (let ((.def_134 (and A19 .def_0))) (let ((.def_135 (and .def_134 .def_133))) (let ((.def_136 (not .def_135))) (let ((.def_137 (and .def_136 .def_131))) (let ((.def_138 (not .def_137))) (let ((.def_139 (and .def_138 .def_126))) (let ((.def_140 (or .def_8 A23))) (let ((.def_141 (or A1 .def_74))) (let ((.def_142 (or .def_141 .def_140))) (let ((.def_143 (or A22 A10))) (let ((.def_144 (or .def_19 A18))) (let ((.def_145 (not .def_144))) (let ((.def_146 (and .def_145 .def_143))) (let ((.def_147 (not .def_146))) (let ((.def_148 (or .def_147 .def_142))) (let ((.def_149 (not A22))) (let ((.def_150 (not A19))) (let ((.def_151 (or .def_150 .def_149))) (let ((.def_152 (not A11))) (let ((.def_153 (and .def_152 .def_150))) (let ((.def_154 (or .def_153 .def_151))) (let ((.def_155 (and .def_50 .def_149))) (let ((.def_156 (or A19 .def_150))) (let ((.def_157 (or .def_156 .def_155))) (let ((.def_158 (not .def_157))) (let ((.def_159 (and .def_158 .def_154))) (let ((.def_160 (not .def_159))) (let ((.def_161 (and .def_160 .def_148))) (let ((.def_162 (and .def_161 .def_139))) (let ((.def_163 (not A16))) (let ((.def_164 (or .def_163 A23))) (let ((.def_165 (and .def_19 .def_68))) (let ((.def_166 (not .def_165))) (let ((.def_167 (and .def_166 .def_164))) (let ((.def_168 (not .def_167))) (let ((.def_169 (not A24))) (let ((.def_170 (or .def_169 A1))) (let ((.def_171 (not .def_170))) (let ((.def_172 (= A12 A9))) (let ((.def_173 (and .def_172 .def_171))) (let ((.def_174 (not .def_173))) (let ((.def_175 (and .def_174 .def_168))) (let ((.def_176 (and .def_74 .def_80))) (let ((.def_177 (not .def_176))) (let ((.def_178 (or .def_66 .def_15))) (let ((.def_179 (not .def_178))) (let ((.def_180 (or .def_179 .def_177))) (let ((.def_181 (not A15))) (let ((.def_182 (and .def_163 .def_181))) (let ((.def_183 (and .def_94 A19))) (let ((.def_184 (or .def_183 .def_182))) (let ((.def_185 (or .def_184 .def_180))) (let ((.def_186 (or .def_185 .def_175))) (let ((.def_187 (or .def_51 A1))) (let ((.def_188 (or A16 A3))) (let ((.def_189 (not .def_188))) (let ((.def_190 (and .def_189 .def_187))) (let ((.def_191 (not .def_190))) (let ((.def_192 (or A13 A16))) (let ((.def_193 (not .def_192))) (let ((.def_194 (= .def_50 A7))) (let ((.def_195 (or .def_194 .def_193))) (let ((.def_196 (not .def_195))) (let ((.def_197 (or .def_196 .def_191))) (let ((.def_198 (or .def_41 .def_94))) (let ((.def_199 (not .def_198))) (let ((.def_200 (or A9 A7))) (let ((.def_201 (not .def_200))) (let ((.def_202 (or .def_201 .def_199))) (let ((.def_203 (or A9 .def_22))) (let ((.def_204 (or A8 A7))) (let ((.def_205 (and .def_204 .def_203))) (let ((.def_206 (not .def_205))) (let ((.def_207 (or .def_206 .def_202))) (let ((.def_208 (or .def_207 .def_197))) (let ((.def_209 (or .def_208 .def_186))) (let ((.def_210 (not .def_209))) (let ((.def_211 (or .def_210 .def_162))) (let ((.def_212 (not .def_211))) (let ((.def_213 (and .def_212 .def_113))) (let ((.def_214 (or .def_0 .def_181))) (let ((.def_215 (not .def_214))) (let ((.def_216 (or A10 A1))) (let ((.def_217 (and .def_216 .def_215))) (let ((.def_218 (not .def_217))) (let ((.def_219 (and .def_94 .def_68))) (let ((.def_220 (or A22 A13))) (let ((.def_221 (not .def_220))) (let ((.def_222 (or .def_221 .def_219))) (let ((.def_223 (or .def_222 .def_218))) (let ((.def_224 (and A18 .def_50))) (let ((.def_225 (or A2 .def_66))) (let ((.def_226 (not .def_225))) (let ((.def_227 (= .def_226 .def_224))) (let ((.def_228 (not .def_227))) (let ((.def_229 (or .def_8 .def_68))) (let ((.def_230 (or A5 A22))) (let ((.def_231 (not .def_230))) (let ((.def_232 (and .def_231 .def_229))) (let ((.def_233 (not .def_232))) (let ((.def_234 (or .def_233 .def_228))) (let ((.def_235 (and .def_234 .def_223))) (let ((.def_236 (not .def_235))) (let ((.def_237 (and A5 .def_80))) (let ((.def_238 (and A10 A24))) (let ((.def_239 (not .def_238))) (let ((.def_240 (= .def_239 .def_237))) (let ((.def_241 (not .def_240))) (let ((.def_242 (or .def_51 .def_149))) (let ((.def_243 (not .def_242))) (let ((.def_244 (= A24 A10))) (let ((.def_245 (not .def_244))) (let ((.def_246 (or .def_245 .def_243))) (let ((.def_247 (not .def_246))) (let ((.def_248 (or .def_247 .def_241))) (let ((.def_249 (or A12 .def_8))) (let ((.def_250 (or A14 A11))) (let ((.def_251 (or .def_250 .def_249))) (let ((.def_252 (= A9 .def_50))) (let ((.def_253 (not .def_252))) (let ((.def_254 (and .def_149 A18))) (let ((.def_255 (= .def_254 .def_253))) (let ((.def_256 (not .def_255))) (let ((.def_257 (or .def_256 .def_251))) (let ((.def_258 (not .def_257))) (let ((.def_259 (or .def_258 .def_248))) (let ((.def_260 (or .def_259 .def_236))) (let ((.def_261 (not .def_260))) (let ((.def_262 (= .def_80 .def_19))) (let ((.def_263 (not .def_262))) (let ((.def_264 (and A22 .def_29))) (let ((.def_265 (or .def_264 .def_263))) (let ((.def_266 (not .def_265))) (let ((.def_267 (or .def_149 A24))) (let ((.def_268 (or .def_80 .def_50))) (let ((.def_269 (not .def_268))) (let ((.def_270 (and .def_269 .def_267))) (let ((.def_271 (not .def_270))) (let ((.def_272 (and .def_271 .def_266))) (let ((.def_273 (not .def_272))) (let ((.def_274 (or A17 A18))) (let ((.def_275 (and A10 A15))) (let ((.def_276 (and .def_275 .def_274))) (let ((.def_277 (or A3 A9))) (let ((.def_278 (and .def_80 .def_94))) (let ((.def_279 (and .def_278 .def_277))) (let ((.def_280 (not .def_279))) (let ((.def_281 (and .def_280 .def_276))) (let ((.def_282 (or .def_281 .def_273))) (let ((.def_283 (not .def_282))) (let ((.def_284 (= A20 A22))) (let ((.def_285 (and .def_30 A20))) (let ((.def_286 (or .def_285 .def_284))) (let ((.def_287 (not .def_286))) (let ((.def_288 (or A4 A12))) (let ((.def_289 (or .def_119 A18))) (let ((.def_290 (not .def_289))) (let ((.def_291 (or .def_290 .def_288))) (let ((.def_292 (not .def_291))) (let ((.def_293 (and .def_292 .def_287))) (let ((.def_294 (not .def_293))) (let ((.def_295 (or .def_44 A12))) (let ((.def_296 (or .def_119 A12))) (let ((.def_297 (and .def_296 .def_295))) (let ((.def_298 (or .def_8 .def_29))) (let ((.def_299 (and .def_94 .def_163))) (let ((.def_300 (or .def_299 .def_298))) (let ((.def_301 (or .def_300 .def_297))) (let ((.def_302 (not .def_301))) (let ((.def_303 (and .def_302 .def_294))) (let ((.def_304 (not .def_303))) (let ((.def_305 (or .def_304 .def_283))) (let ((.def_306 (and .def_305 .def_261))) (let ((.def_307 (not .def_306))) (let ((.def_308 (or A2 A1))) (let ((.def_309 (not .def_308))) (let ((.def_310 (or .def_44 A13))) (let ((.def_311 (or .def_310 .def_309))) (let ((.def_312 (or .def_22 .def_163))) (let ((.def_313 (or A5 A2))) (let ((.def_314 (or .def_313 .def_312))) (let ((.def_315 (not .def_314))) (let ((.def_316 (or .def_315 .def_311))) (let ((.def_317 (or .def_0 A11))) (let ((.def_318 (not .def_317))) (let ((.def_319 (or .def_22 .def_51))) (let ((.def_320 (not .def_319))) (let ((.def_321 (and .def_320 .def_318))) (let ((.def_322 (and .def_80 A0))) (let ((.def_323 (or .def_7 A20))) (let ((.def_324 (or .def_323 .def_322))) (let ((.def_325 (= .def_324 .def_321))) (let ((.def_326 (not .def_325))) (let ((.def_327 (and .def_326 .def_316))) (let ((.def_328 (not .def_327))) (let ((.def_329 (and .def_119 A17))) (let ((.def_330 (not .def_329))) (let ((.def_331 (or .def_80 A14))) (let ((.def_332 (not .def_331))) (let ((.def_333 (and .def_332 .def_330))) (let ((.def_334 (or .def_119 A1))) (let ((.def_335 (not .def_334))) (let ((.def_336 (or .def_149 .def_80))) (let ((.def_337 (= .def_336 .def_335))) (let ((.def_338 (not .def_337))) (let ((.def_339 (and .def_338 .def_333))) (let ((.def_340 (and A3 A9))) (let ((.def_341 (or A6 A17))) (let ((.def_342 (or .def_341 .def_340))) (let ((.def_343 (not .def_342))) (let ((.def_344 (or A23 A0))) (let ((.def_345 (or A10 .def_80))) (let ((.def_346 (or .def_345 .def_344))) (let ((.def_347 (or .def_346 .def_343))) (let ((.def_348 (not .def_347))) (let ((.def_349 (= .def_348 .def_339))) (let ((.def_350 (not .def_349))) (let ((.def_351 (or .def_350 .def_328))) (let ((.def_352 (not .def_351))) (let ((.def_353 (and .def_169 A1))) (let ((.def_354 (and A23 .def_163))) (let ((.def_355 (not .def_354))) (let ((.def_356 (= .def_355 .def_353))) (let ((.def_357 (not .def_356))) (let ((.def_358 (= A17 A13))) (let ((.def_359 (= .def_169 .def_74))) (let ((.def_360 (and .def_359 .def_358))) (let ((.def_361 (not .def_360))) (let ((.def_362 (and .def_361 .def_357))) (let ((.def_363 (or .def_181 A2))) (let ((.def_364 (or .def_94 A19))) (let ((.def_365 (not .def_364))) (let ((.def_366 (or .def_365 .def_363))) (let ((.def_367 (not .def_366))) (let ((.def_368 (and A21 A12))) (let ((.def_369 (not .def_368))) (let ((.def_370 (and .def_181 A22))) (let ((.def_371 (not .def_370))) (let ((.def_372 (= .def_371 .def_369))) (let ((.def_373 (and .def_372 .def_367))) (let ((.def_374 (not .def_373))) (let ((.def_375 (or .def_374 .def_362))) (let ((.def_376 (or .def_119 A6))) (let ((.def_377 (not .def_376))) (let ((.def_378 (and .def_152 A3))) (let ((.def_379 (not .def_378))) (let ((.def_380 (and .def_379 .def_377))) (let ((.def_381 (not .def_380))) (let ((.def_382 (or .def_51 A5))) (let ((.def_383 (= .def_0 .def_181))) (let ((.def_384 (and .def_383 .def_382))) (let ((.def_385 (and .def_384 .def_381))) (let ((.def_386 (and A15 .def_68))) (let ((.def_387 (not .def_386))) (let ((.def_388 (or A20 .def_2))) (let ((.def_389 (and .def_388 .def_387))) (let ((.def_390 (not .def_389))) (let ((.def_391 (or .def_152 A7))) (let ((.def_392 (and A17 .def_119))) (let ((.def_393 (not .def_392))) (let ((.def_394 (or .def_393 .def_391))) (let ((.def_395 (and .def_394 .def_390))) (let ((.def_396 (not .def_395))) (let ((.def_397 (and .def_396 .def_385))) (let ((.def_398 (not .def_397))) (let ((.def_399 (and .def_398 .def_375))) (let ((.def_400 (or .def_399 .def_352))) (let ((.def_401 (not .def_400))) (let ((.def_402 (and .def_401 .def_307))) (let ((.def_403 (not .def_402))) (let ((.def_404 (or .def_403 .def_213))) .def_404))))))))))))))))))))))))))))))))))))))))))))))))))))))))))))))))))))))))))))))))))))))))))))))))))))))))))))))))))))))))))))))))))))))))))))))))))))))))))))))))))))))))))))))))))))))))))))))))))))))))))))))))))))))))))))))))))))))))))))))))))))))))))))))))))))))))))))))))))))))))))))))))))))))))))))))))))))))))))))))))))))))))))))))))))))))))))))))))))))))))))))))))))))))))))))))))))))))))))))))))))))))
(check-sat)
